/*********************************************
 * OPL 22.1.1.0 Data
 * Author: tmactong
 * Creation Date: Apr 3, 2025 at 10:12:55 AM
 *********************************************/

MemberNo=4;
/*
BidsMatric=[
	[0 3 5]
	[5 0 2]
	[4 5 0]
];
*/

BidsMatric=[
	[0 3 5 3]
	[5 0 2 2]
	[4 5 0 4]
	[3 5 2 0]
];